Geometry = GenFormat {
5 C
H C
1 1 -0.7954868078231812 0.5766599178314209 -0.5472012162208557
2 1 -0.39378392696380615 -0.9799267649650574 0.27228620648384094
3 1 0.6344987750053406 0.4473651051521301 0.9356873631477356
4 1 0.595818042755127 -0.1651792824268341 -0.8915708065032959
5 2 -0.0034502020571380854 0.010170810855925083 0.019380325451493263
}
Driver = {}
Hamiltonian = DFTB {
  Scc = Yes
  SccTolerance = 1e-8
  MaxSccIterations = 100
  Mixer = Broyden {
    MixingParameter = 0.2
    InverseJacobiWeight = 1.0000000000000000E-002
    MinimalWeight = 1.0000000000000000
    MaximalWeight = 100000.00000000000
    WeightFactor = 1.0000000000000000E-002
  }
  MaxAngularMomentum = {
    H = "s"
    C = "p"
  }
  Charge = 0.0
  SpinPolarisation = {}
  Solver = DivideAndConquer {}
  Filling = Fermi {
    Temperature [Kelvin] = 0.0
  }
  SlaterKosterFiles = Type2FileNames {
    Separator = "-"
    Suffix = ".skf"
    Prefix = ""
    LowerCaseTypeName = No
  }
  PolynomialRepulsive = {}
  ShellResolvedSCC = No
  OldSKInterpolation = No
  RangeSeparated = None {}
  ReadInitialCharges = No
  InitialCharges = {}
  HCorrection = None {}
  ElectricField = {}
  OnSiteCorrection = {}
  Dispersion = {}
  ThirdOrder = No
  ThirdOrderFull = No
  Differentiation = FiniteDiff {
    Delta = 1.2207031250000000E-004
  }
  ForceEvaluation = "Traditional"
}
Analysis = {
  CalculateForces = Yes
  ProjectStates = {}
  WriteEigenvectors = No
  WriteBandOut = Yes
  MullikenAnalysis = Yes
  AtomResolvedEnergies = No
  EigenvectorsAsTxt = No
}
Options = {
  WriteAutotestTag = Yes
  WriteDetailedOut = Yes
  WriteDetailedXML = No
  WriteResultsTag = No
  RestartFrequency = 20
  RandomSeed = 0
  WriteHS = No
  WriteRealHS = No
  MinimiseMemoryUsage = No
  ShowFoldedCoords = No
  TimingVerbosity = 1
  WriteChargesAsText = No
}
ParserOptions = {
  ParserVersion = 7
  WriteHSDInput = Yes
  WriteXMLInput = No
  StopAfterParsing = No
  IgnoreUnprocessedNodes = No
}
Parallel = {
  UseOmpThreads = Yes
  Groups = 1
}
ExcitedState = {}
