Geometry = GenFormat {
5 C
C H
1 1 -0.003745952621102333 -0.0067975870333611965 -0.002933471230790019
2 2 -0.8005163669586182 0.6559548377990723 -0.3117859959602356
3 2 -0.44988787174224854 -0.94451904296875 0.3546018898487091
4 2 0.5332881808280945 0.4986025393009186 0.8035914301872253
5 2 0.7616836428642273 -0.12907952070236206 -0.811519205570221
}
Driver = {}
Hamiltonian = DFTB {
  Scc = Yes
  SccTolerance = 1e-8
  MaxSccIterations = 100
  Mixer = Broyden {
    MixingParameter = 0.2
    InverseJacobiWeight = 1.0000000000000000E-002
    MinimalWeight = 1.0000000000000000
    MaximalWeight = 100000.00000000000
    WeightFactor = 1.0000000000000000E-002
  }
  MaxAngularMomentum = {
    C = "p"
    H = "s"
  }
  Charge = 0.0
  SpinPolarisation = {}
  Solver = DivideAndConquer {}
  Filling = Fermi {
    Temperature [Kelvin] = 0.0
  }
  SlaterKosterFiles = Type2FileNames {
    Separator = "-"
    Suffix = ".skf"
    Prefix = ""
    LowerCaseTypeName = No
  }
  PolynomialRepulsive = {}
  ShellResolvedSCC = No
  OldSKInterpolation = No
  RangeSeparated = None {}
  ReadInitialCharges = No
  InitialCharges = {}
  HCorrection = None {}
  ElectricField = {}
  OnSiteCorrection = {}
  Dispersion = {}
  ThirdOrder = No
  ThirdOrderFull = No
  Differentiation = FiniteDiff {
    Delta = 1.2207031250000000E-004
  }
  ForceEvaluation = "Traditional"
}
Analysis = {
  CalculateForces = Yes
  ProjectStates = {}
  WriteEigenvectors = No
  WriteBandOut = Yes
  MullikenAnalysis = Yes
  AtomResolvedEnergies = No
  EigenvectorsAsTxt = No
}
Options = {
  WriteAutotestTag = Yes
  WriteDetailedOut = Yes
  WriteDetailedXML = No
  WriteResultsTag = No
  RestartFrequency = 20
  RandomSeed = 0
  WriteHS = No
  WriteRealHS = No
  MinimiseMemoryUsage = No
  ShowFoldedCoords = No
  TimingVerbosity = 1
  WriteChargesAsText = No
}
ParserOptions = {
  ParserVersion = 7
  WriteHSDInput = Yes
  WriteXMLInput = No
  StopAfterParsing = No
  IgnoreUnprocessedNodes = No
}
Parallel = {
  UseOmpThreads = Yes
  Groups = 1
}
ExcitedState = {}
