Geometry = GenFormat { 
  <<< "geo.gen" 
 } 
Driver {} 
Hamiltonian = DFTB { 
Scc = Yes 
SccTolerance = 1e-8 
 MaxSccIterations = 100 
Mixer = Broyden { 
 MixingParameter = 0.2 } 
MaxAngularMomentum { 
O="p" 
H="s" 
} 
 Charge = 0.0 
 SpinPolarisation {} 
Eigensolver = DivideAndConquer {} 
Filling = Fermi { 
Temperature [Kelvin] = 0.0 
 } 
SlaterKosterFiles = Type2FileNames { 
Separator = "-" 
 Suffix = ".skf" 
 } 
} 
Analysis { 
 CalculateForces = Yes 
 } 
Options { 
 WriteAutotestTag = Yes 
 } 
ParserOptions { 
 ParserVersion = 5 
 } 
Parallel { 
 UseOmpThreads = Yes 
 } 
