Geometry = GenFormat {
5 C
C H
1 1 -0.0034502   0.01017081  0.01938033
2 2 -0.7954868   0.5766599  -0.5472012
3 2 -0.39378393 -0.97992676  0.2722862
4 2  0.6344988   0.4473651   0.93568736
5 2  0.59581804 -0.16517928 -0.8915708
}
Driver = {}
Hamiltonian = DFTB {
  Scc = No
  MaxAngularMomentum = {
    H = "s"
    C = "p"
  }
  Charge = 0.0
  Eigensolver = DivideAndConquer {}
  Filling = Fermi {
    Temperature [Kelvin] = 0.0
  }
  SlaterKosterFiles = Type2FileNames {
    Separator = "-"
    Suffix = ".skf"
    Prefix = ""
    LowerCaseTypeName = No
  }
  PolynomialRepulsive = {}
  OrbitalResolvedSCC = No
  OldSKInterpolation = No
  ElectricField = {}
  Dispersion = {}
  Differentiation = FiniteDiff {
    Delta = 1.2207031250000000E-004
  }
}
Analysis = {
  CalculateForces = Yes
  ProjectStates = {}
  MullikenAnalysis = Yes
  AtomResolvedEnergies = No
  WriteEigenvectors = No
  EigenvectorsAsTxt = No
  WriteBandOut = Yes
}
Options = {
  WriteAutotestTag = Yes
  WriteDetailedOut = Yes
  WriteDetailedXML = No
  WriteResultsTag = No
  RandomSeed = 0
  WriteHS = No
  WriteRealHS = No
  MinimiseMemoryUsage = No
  ShowFoldedCoords = No
  TimingVerbosity = 0
  WriteChargesAsText = No
}
ParserOptions = {
  ParserVersion = 5
  WriteHSDInput = Yes
  WriteXMLInput = No
  StopAfterParsing = No
  IgnoreUnprocessedNodes = No
}
Parallel = {
  UseOmpThreads = Yes
  Groups = 1
  Blacs = BlockSize {
32
  }
}
ExcitedState = {}
